NAME          
ROWS
 N  OBJ
 L  c1
COLUMNS
    MARKER    'MARKER'                 'INTORG'
    x[1]      c1        297
    x[1]      OBJ       -484
    x[2]      c1        145
    x[2]      OBJ       -334
    x[3]      c1        277
    x[3]      OBJ       -397
    x[4]      c1        647
    x[4]      OBJ       -68
    x[5]      c1        132
    x[5]      OBJ       -68
    x[6]      c1        720
    x[6]      OBJ       -635
    x[7]      c1        466
    x[7]      OBJ       -525
    x[8]      c1        981
    x[8]      OBJ       -389
    x[9]      c1        849
    x[9]      OBJ       -21
    x[10]     c1        543
    x[10]     OBJ       -739
    x[11]     c1        380
    x[11]     OBJ       -403
    x[12]     c1        246
    x[12]     OBJ       -200
    x[13]     c1        33
    x[13]     OBJ       -989
    x[14]     c1        846
    x[14]     OBJ       -805
    x[15]     c1        776
    x[15]     OBJ       -493
    x[16]     c1        195
    x[16]     OBJ       -710
    x[17]     c1        861
    x[17]     OBJ       -613
    x[18]     c1        352
    x[18]     OBJ       -820
    x[19]     c1        809
    x[19]     OBJ       -539
    x[20]     c1        24
    x[20]     OBJ       -948
RHS
    rhs       c1        4790
RANGES
BOUNDS
 BV bounds    x[1]
 BV bounds    x[2]
 BV bounds    x[3]
 BV bounds    x[4]
 BV bounds    x[5]
 BV bounds    x[6]
 BV bounds    x[7]
 BV bounds    x[8]
 BV bounds    x[9]
 BV bounds    x[10]
 BV bounds    x[11]
 BV bounds    x[12]
 BV bounds    x[13]
 BV bounds    x[14]
 BV bounds    x[15]
 BV bounds    x[16]
 BV bounds    x[17]
 BV bounds    x[18]
 BV bounds    x[19]
 BV bounds    x[20]
ENDATA
